<?xml version = "1.0" encoding="UTF-8" standalone="yes"?>
<CPLEXSolution version="1.2">
 <header
   problemName="testFile.lp"
   solutionName="incumbent"
   solutionIndex="-1"
   objectiveValue="100"
   solutionTypeValue="3"
   solutionTypeString="primal"
   solutionStatusValue="101"
   solutionStatusString="integer optimal solution"
   solutionMethodString="mip"
   primalFeasible="1"
   dualFeasible="1"
   MIPNodes="0"
   MIPIterations="0"
   writeLevel="1"/>
 <quality
   epInt="1.0000000000000001e-05"
   epRHS="9.9999999999999995e-07"
   maxIntInfeas="0"
   maxPrimalInfeas="0"
   maxX="100"
   maxSlack="199"/>
 <linearConstraints>
  <constraint name="c1" index="0" slack="2"/>
  <constraint name="c2" index="1" slack="0"/>
  <constraint name="c3" index="2" slack="-1"/>
  <constraint name="c4" index="3" slack="0"/>
  <constraint name="c5" index="4" slack="0"/>
  <constraint name="c6" index="5" slack="0"/>
  <constraint name="c7" index="6" slack="0"/>
  <constraint name="c8" index="7" slack="1"/>
  <constraint name="c9" index="8" slack="0"/>
  <constraint name="c10" index="9" slack="0"/>
  <constraint name="c11" index="10" slack="0"/>
  <constraint name="c12" index="11" slack="0"/>
  <constraint name="c13" index="12" slack="0"/>
  <constraint name="c14" index="13" slack="0"/>
  <constraint name="c15" index="14" slack="0"/>
  <constraint name="c16" index="15" slack="1"/>
  <constraint name="c17" index="16" slack="0"/>
  <constraint name="c18" index="17" slack="0"/>
  <constraint name="c19" index="18" slack="0"/>
  <constraint name="c20" index="19" slack="0"/>
  <constraint name="c21" index="20" slack="0"/>
  <constraint name="c22" index="21" slack="0"/>
  <constraint name="c23" index="22" slack="0"/>
  <constraint name="c24" index="23" slack="0"/>
  <constraint name="c25" index="24" slack="0"/>
  <constraint name="c26" index="25" slack="101"/>
  <constraint name="c27" index="26" slack="199"/>
  <constraint name="c28" index="27" slack="0"/>
  <constraint name="c29" index="28" slack="199"/>
  <constraint name="c30" index="29" slack="0"/>
  <constraint name="c31" index="30" slack="0"/>
  <constraint name="c32" index="31" slack="100"/>
  <constraint name="c33" index="32" slack="100"/>
 </linearConstraints>
 <variables>
  <variable name="absDiff3_1" index="0" value="1"/>
  <variable name="absDiff1_1" index="1" value="0"/>
  <variable name="absDiff2_1" index="2" value="0"/>
  <variable name="xb4_1" index="3" value="0"/>
  <variable name="xb5_1" index="4" value="0"/>
  <variable name="xb6_1" index="5" value="0"/>
  <variable name="xb7_1" index="6" value="0"/>
  <variable name="xb8_1" index="7" value="-0"/>
  <variable name="xb9_1" index="8" value="0"/>
  <variable name="xb3_1" index="9" value="-0"/>
  <variable name="xb10_1" index="10" value="0"/>
  <variable name="xb1_1" index="11" value="-1"/>
  <variable name="xb11_1" index="12" value="0"/>
  <variable name="xb2_1" index="13" value="0"/>
  <variable name="xb12_1" index="14" value="1"/>
  <variable name="xb13_1" index="15" value="-0"/>
  <variable name="B_P_1" index="16" value="-1"/>
  <variable name="B_TF_1" index="17" value="-0"/>
  <variable name="B_G_1" index="18" value="-0"/>
  <variable name="dist_P" index="19" value="0"/>
  <variable name="dist_TF" index="20" value="1"/>
  <variable name="dist_G" index="21" value="100"/>
  <variable name="dist_1" index="22" value="0"/>
  <variable name="dist_2" index="23" value="0"/>
 </variables>
</CPLEXSolution>
